12° run output:
{
    "Function": "euclidA500.tsp",
    "Problem dimension": [
        271,
        232,
        272,
        109,
        254,
        458,
        247,
        172,
        353,
        84,
        428,
        358,
        41,
        269,
        174,
        209,
        161,
        279,
        55,
        369,
        223,
        63,
        475,
        219,
        371,
        175,
        275,
        76,
        39,
        44,
        392,
        472,
        340,
        129,
        117,
        291,
        29,
        300,
        173,
        342,
        336,
        320,
        229,
        166,
        182,
        23,
        248,
        274,
        359,
        499,
        348,
        444,
        482,
        233,
        162,
        139,
        284,
        418,
        431,
        349,
        192,
        160,
        221,
        315,
        159,
        408,
        364,
        382,
        449,
        64,
        73,
        278,
        93,
        401,
        98,
        484,
        404,
        210,
        65,
        237,
        106,
        40,
        461,
        91,
        167,
        176,
        252,
        83,
        292,
        38,
        296,
        143,
        131,
        207,
        433,
        427,
        6,
        407,
        134,
        351,
        199,
        372,
        465,
        24,
        19,
        310,
        352,
        448,
        495,
        415,
        36,
        285,
        147,
        481,
        399,
        355,
        195,
        89,
        4,
        327,
        206,
        119,
        493,
        492,
        289,
        421,
        22,
        273,
        125,
        226,
        104,
        486,
        121,
        170,
        477,
        47,
        306,
        94,
        450,
        18,
        262,
        339,
        220,
        33,
        58,
        467,
        494,
        308,
        402,
        238,
        377,
        50,
        301,
        208,
        234,
        31,
        346,
        30,
        298,
        417,
        455,
        485,
        313,
        335,
        381,
        344,
        78,
        304,
        8,
        367,
        68,
        118,
        17,
        424,
        2,
        168,
        57,
        314,
        116,
        123,
        396,
        180,
        10,
        224,
        184,
        497,
        435,
        169,
        265,
        146,
        425,
        243,
        368,
        250,
        276,
        156,
        45,
        286,
        216,
        95,
        426,
        138,
        99,
        443,
        413,
        75,
        317,
        387,
        153,
        463,
        478,
        218,
        126,
        72,
        62,
        12,
        157,
        148,
        470,
        436,
        191,
        405,
        158,
        446,
        196,
        164,
        356,
        111,
        149,
        410,
        108,
        189,
        244,
        86,
        177,
        457,
        283,
        137,
        49,
        259,
        287,
        409,
        323,
        222,
        384,
        302,
        51,
        194,
        14,
        385,
        280,
        282,
        187,
        70,
        267,
        128,
        290,
        311,
        69,
        217,
        203,
        379,
        53,
        277,
        498,
        281,
        154,
        231,
        390,
        361,
        375,
        81,
        215,
        403,
        61,
        309,
        294,
        87,
        414,
        322,
        186,
        378,
        357,
        142,
        462,
        43,
        293,
        343,
        52,
        133,
        101,
        197,
        178,
        16,
        242,
        318,
        253,
        241,
        362,
        350,
        476,
        391,
        92,
        5,
        441,
        325,
        225,
        438,
        67,
        251,
        115,
        480,
        491,
        204,
        255,
        96,
        122,
        411,
        400,
        145,
        332,
        263,
        337,
        326,
        32,
        80,
        416,
        365,
        312,
        303,
        373,
        11,
        394,
        454,
        107,
        473,
        179,
        13,
        82,
        205,
        305,
        113,
        453,
        9,
        114,
        319,
        474,
        150,
        434,
        345,
        440,
        130,
        432,
        261,
        132,
        1,
        201,
        3,
        228,
        489,
        347,
        60,
        25,
        105,
        190,
        383,
        395,
        316,
        374,
        54,
        389,
        299,
        466,
        7,
        37,
        227,
        270,
        437,
        341,
        370,
        211,
        423,
        334,
        452,
        468,
        422,
        85,
        15,
        479,
        127,
        200,
        185,
        429,
        420,
        155,
        28,
        321,
        140,
        460,
        100,
        110,
        79,
        240,
        112,
        59,
        26,
        213,
        136,
        66,
        324,
        88,
        202,
        34,
        363,
        459,
        268,
        496,
        393,
        266,
        330,
        386,
        488,
        20,
        0,
        338,
        165,
        236,
        376,
        256,
        144,
        90,
        245,
        46,
        258,
        430,
        193,
        163,
        171,
        445,
        103,
        295,
        260,
        230,
        141,
        27,
        77,
        264,
        48,
        354,
        246,
        297,
        249,
        35,
        490,
        135,
        71,
        447,
        331,
        42,
        328,
        151,
        406,
        56,
        456,
        360,
        198,
        183,
        366,
        152,
        412,
        398,
        235,
        288,
        102,
        397,
        307,
        451,
        483,
        464,
        239,
        188,
        329,
        120,
        257,
        97,
        214,
        181,
        124,
        388,
        487,
        333,
        469,
        21,
        419,
        74,
        212,
        380,
        439,
        471,
        442
    ],
    "Global Optimum": 0,
    "Algorithm": "Genetic algorithm",
    "Parameters": {
        "population": 30,
        "offspring": 30,
        "mutation probability": 0.002,
        "crossover probability": 0.9
    },
    "Fitness": 605424,
    "Solution": [
        271,
        232,
        272,
        109,
        254,
        458,
        247,
        172,
        353,
        84,
        428,
        358,
        41,
        269,
        174,
        209,
        161,
        279,
        55,
        369,
        223,
        63,
        475,
        219,
        371,
        175,
        275,
        76,
        39,
        44,
        392,
        472,
        340,
        129,
        117,
        291,
        29,
        300,
        173,
        342,
        336,
        320,
        229,
        166,
        182,
        23,
        248,
        274,
        359,
        499,
        348,
        444,
        482,
        233,
        162,
        139,
        284,
        418,
        431,
        349,
        192,
        160,
        221,
        315,
        159,
        408,
        364,
        382,
        449,
        64,
        73,
        278,
        93,
        401,
        98,
        484,
        404,
        210,
        65,
        237,
        106,
        40,
        461,
        91,
        167,
        176,
        252,
        83,
        292,
        38,
        296,
        143,
        131,
        207,
        433,
        427,
        6,
        407,
        134,
        351,
        199,
        372,
        465,
        24,
        19,
        310,
        352,
        448,
        495,
        415,
        36,
        285,
        147,
        481,
        399,
        355,
        195,
        89,
        4,
        327,
        206,
        119,
        493,
        492,
        289,
        421,
        22,
        273,
        125,
        226,
        104,
        486,
        121,
        170,
        477,
        47,
        306,
        94,
        450,
        18,
        262,
        339,
        220,
        33,
        58,
        467,
        494,
        308,
        402,
        238,
        377,
        50,
        301,
        208,
        234,
        31,
        346,
        30,
        298,
        417,
        455,
        485,
        313,
        335,
        381,
        344,
        78,
        304,
        8,
        367,
        68,
        118,
        17,
        424,
        2,
        168,
        57,
        314,
        116,
        123,
        396,
        180,
        10,
        224,
        184,
        497,
        435,
        169,
        265,
        146,
        425,
        243,
        368,
        250,
        276,
        156,
        45,
        286,
        216,
        95,
        426,
        138,
        99,
        443,
        413,
        75,
        317,
        387,
        153,
        463,
        478,
        218,
        126,
        72,
        62,
        12,
        157,
        148,
        470,
        436,
        191,
        405,
        158,
        446,
        196,
        164,
        356,
        111,
        149,
        410,
        108,
        189,
        244,
        86,
        177,
        457,
        283,
        137,
        49,
        259,
        287,
        409,
        323,
        222,
        384,
        302,
        51,
        194,
        14,
        385,
        280,
        282,
        187,
        70,
        267,
        128,
        290,
        311,
        69,
        217,
        203,
        379,
        53,
        277,
        498,
        281,
        154,
        231,
        390,
        361,
        375,
        81,
        215,
        403,
        61,
        309,
        294,
        87,
        414,
        322,
        186,
        378,
        357,
        142,
        462,
        43,
        293,
        343,
        52,
        133,
        101,
        197,
        178,
        16,
        242,
        318,
        253,
        241,
        362,
        350,
        476,
        391,
        92,
        5,
        441,
        325,
        225,
        438,
        67,
        251,
        115,
        480,
        491,
        204,
        255,
        96,
        122,
        411,
        400,
        145,
        332,
        263,
        337,
        326,
        32,
        80,
        416,
        365,
        312,
        303,
        373,
        11,
        394,
        454,
        107,
        473,
        179,
        13,
        82,
        205,
        305,
        113,
        453,
        9,
        114,
        319,
        474,
        150,
        434,
        345,
        440,
        130,
        432,
        261,
        132,
        1,
        201,
        3,
        228,
        489,
        347,
        60,
        25,
        105,
        190,
        383,
        395,
        316,
        374,
        54,
        389,
        299,
        466,
        7,
        37,
        227,
        270,
        437,
        341,
        370,
        211,
        423,
        334,
        452,
        468,
        422,
        85,
        15,
        479,
        127,
        200,
        185,
        429,
        420,
        155,
        28,
        321,
        140,
        460,
        100,
        110,
        79,
        240,
        112,
        59,
        26,
        213,
        136,
        66,
        324,
        88,
        202,
        34,
        363,
        459,
        268,
        496,
        393,
        266,
        330,
        386,
        488,
        20,
        0,
        338,
        165,
        236,
        376,
        256,
        144,
        90,
        245,
        46,
        258,
        430,
        193,
        163,
        171,
        445,
        103,
        295,
        260,
        230,
        141,
        27,
        77,
        264,
        48,
        354,
        246,
        297,
        249,
        35,
        490,
        135,
        71,
        447,
        331,
        42,
        328,
        151,
        406,
        56,
        456,
        360,
        198,
        183,
        366,
        152,
        412,
        398,
        235,
        288,
        102,
        397,
        307,
        451,
        483,
        464,
        239,
        188,
        329,
        120,
        257,
        97,
        214,
        181,
        124,
        388,
        487,
        333,
        469,
        21,
        419,
        74,
        212,
        380,
        439,
        471,
        442
    ],
    "Nb of functions evaluations": 200010,
    "Computational time in seconds": 1002.1717269420624,
    "Stopping criterion in evaluations": 200000
}